NAME 
OBJSENSE MAX
ROWS
 N  OBJ
 L  packing[0]
 L  packing[1]
 L  packing[2]
 L  packing[3]
 L  packing[4]
 L  packing[5]
 L  packing[6]
 L  packing[7]
 L  packing[8]
 L  packing[9]
 L  packing[10]
 L  packing[11]
 L  packing[12]
 L  packing[13]
 L  packing[14]
 L  packing[15]
 L  packing[16]
 L  packing[17]
 L  packing[18]
 L  packing[19]
 L  packing[20]
 L  packing[21]
 L  packing[22]
 L  packing[23]
 L  packing[24]
 L  packing[25]
 L  packing[26]
 L  packing[27]
 L  packing[28]
 L  packing[29]
 L  packing[30]
 L  packing[31]
 L  packing[32]
 L  packing[33]
 L  packing[34]
 L  packing[35]
 L  packing[36]
 L  packing[37]
 L  packing[38]
 L  packing[39]
 L  packing[40]
 L  packing[41]
 L  packing[42]
 L  packing[43]
 L  packing[44]
 L  packing[45]
 L  packing[46]
 L  packing[47]
 L  packing[48]
 L  packing[49]
 L  R57     
COLUMNS
    MARKER    'MARKER'                 'INTORG'
    x[1]      OBJ       31
    x[1]      packing[3]  22
    x[1]      packing[4]  120
    x[1]      packing[5]  29
    x[1]      packing[6]  180
    x[1]      packing[8]  134
    x[1]      packing[9]  110
    x[1]      packing[11]  181
    x[1]      packing[12]  36
    x[1]      packing[13]  99
    x[1]      packing[14]  61
    x[1]      packing[16]  96
    x[1]      packing[17]  28
    x[1]      packing[18]  144
    x[1]      packing[19]  139
    x[1]      packing[20]  13
    x[1]      packing[21]  52
    x[1]      packing[22]  165
    x[1]      packing[23]  48
    x[1]      packing[24]  60
    x[1]      packing[25]  85
    x[1]      packing[26]  136
    x[1]      packing[28]  197
    x[1]      packing[29]  64
    x[1]      packing[30]  53
    x[1]      packing[31]  140
    x[1]      packing[32]  47
    x[1]      packing[34]  197
    x[1]      packing[35]  11
    x[1]      packing[36]  87
    x[1]      packing[37]  24
    x[1]      packing[38]  133
    x[1]      packing[43]  143
    x[1]      packing[44]  7
    x[1]      packing[45]  47
    x[1]      packing[47]  189
    x[1]      packing[48]  142
    x[2]      OBJ       32
    x[2]      packing[0]  29
    x[2]      packing[1]  26
    x[2]      packing[2]  50
    x[2]      packing[3]  73
    x[2]      packing[5]  117
    x[2]      packing[8]  157
    x[2]      packing[9]  43
    x[2]      packing[10]  182
    x[2]      packing[11]  107
    x[2]      packing[12]  122
    x[2]      packing[15]  86
    x[2]      packing[17]  190
    x[2]      packing[18]  174
    x[2]      packing[19]  147
    x[2]      packing[20]  8
    x[2]      packing[21]  22
    x[2]      packing[22]  175
    x[2]      packing[23]  166
    x[2]      packing[26]  99
    x[2]      packing[27]  18
    x[2]      packing[28]  179
    x[2]      packing[29]  86
    x[2]      packing[30]  15
    x[2]      packing[31]  73
    x[2]      packing[33]  38
    x[2]      packing[35]  86
    x[2]      packing[36]  80
    x[2]      packing[37]  60
    x[2]      packing[38]  33
    x[2]      packing[39]  42
    x[2]      packing[40]  41
    x[2]      packing[41]  124
    x[2]      packing[44]  199
    x[2]      packing[46]  172
    x[2]      packing[48]  152
    x[2]      packing[49]  131
    x[3]      OBJ       194
    x[3]      packing[1]  23
    x[3]      packing[2]  143
    x[3]      packing[3]  107
    x[3]      packing[4]  18
    x[3]      packing[6]  74
    x[3]      packing[7]  41
    x[3]      packing[9]  47
    x[3]      packing[12]  184
    x[3]      packing[14]  88
    x[3]      packing[16]  36
    x[3]      packing[17]  97
    x[3]      packing[18]  24
    x[3]      packing[19]  81
    x[3]      packing[20]  174
    x[3]      packing[21]  193
    x[3]      packing[24]  44
    x[3]      packing[25]  24
    x[3]      packing[27]  156
    x[3]      packing[31]  78
    x[3]      packing[33]  130
    x[3]      packing[34]  133
    x[3]      packing[35]  1
    x[3]      packing[36]  59
    x[3]      packing[39]  17
    x[3]      packing[40]  45
    x[3]      packing[41]  21
    x[3]      packing[43]  142
    x[3]      packing[45]  123
    x[3]      packing[46]  180
    x[3]      packing[47]  123
    x[3]      packing[48]  14
    x[3]      packing[49]  162
    x[3]      R57       1
    x[4]      OBJ       42
    x[4]      packing[0]  152
    x[4]      packing[2]  50
    x[4]      packing[3]  140
    x[4]      packing[4]  110
    x[4]      packing[5]  26
    x[4]      packing[6]  128
    x[4]      packing[7]  167
    x[4]      packing[8]  26
    x[4]      packing[9]  19
    x[4]      packing[10]  169
    x[4]      packing[11]  182
    x[4]      packing[13]  137
    x[4]      packing[14]  185
    x[4]      packing[16]  24
    x[4]      packing[17]  76
    x[4]      packing[19]  167
    x[4]      packing[20]  3
    x[4]      packing[21]  59
    x[4]      packing[22]  129
    x[4]      packing[23]  196
    x[4]      packing[24]  96
    x[4]      packing[25]  111
    x[4]      packing[26]  151
    x[4]      packing[28]  146
    x[4]      packing[29]  52
    x[4]      packing[30]  199
    x[4]      packing[31]  55
    x[4]      packing[32]  13
    x[4]      packing[33]  154
    x[4]      packing[34]  63
    x[4]      packing[37]  167
    x[4]      packing[38]  28
    x[4]      packing[39]  193
    x[4]      packing[40]  187
    x[4]      packing[41]  22
    x[4]      packing[42]  125
    x[4]      packing[43]  173
    x[4]      packing[44]  113
    x[4]      packing[45]  6
    x[4]      packing[46]  199
    x[4]      packing[47]  155
    x[4]      packing[49]  43
    x[5]      OBJ       149
    x[5]      packing[0]  22
    x[5]      packing[1]  124
    x[5]      packing[4]  7
    x[5]      packing[5]  157
    x[5]      packing[9]  19
    x[5]      packing[10]  198
    x[5]      packing[11]  199
    x[5]      packing[12]  100
    x[5]      packing[13]  88
    x[5]      packing[14]  39
    x[5]      packing[15]  160
    x[5]      packing[16]  42
    x[5]      packing[18]  6
    x[5]      packing[19]  179
    x[5]      packing[20]  91
    x[5]      packing[23]  149
    x[5]      packing[24]  63
    x[5]      packing[25]  56
    x[5]      packing[26]  184
    x[5]      packing[28]  51
    x[5]      packing[29]  169
    x[5]      packing[30]  23
    x[5]      packing[31]  22
    x[5]      packing[32]  115
    x[5]      packing[33]  85
    x[5]      packing[34]  98
    x[5]      packing[35]  175
    x[5]      packing[37]  124
    x[5]      packing[38]  82
    x[5]      packing[40]  157
    x[5]      packing[41]  182
    x[5]      packing[42]  165
    x[5]      packing[45]  96
    x[5]      packing[46]  69
    x[5]      packing[47]  181
    x[5]      packing[49]  119
    x[5]      R57       1
    x[6]      OBJ       189
    x[6]      packing[0]  75
    x[6]      packing[2]  18
    x[6]      packing[3]  3
    x[6]      packing[5]  138
    x[6]      packing[6]  193
    x[6]      packing[8]  195
    x[6]      packing[9]  27
    x[6]      packing[11]  187
    x[6]      packing[12]  126
    x[6]      packing[13]  141
    x[6]      packing[14]  61
    x[6]      packing[15]  6
    x[6]      packing[16]  187
    x[6]      packing[17]  181
    x[6]      packing[18]  53
    x[6]      packing[19]  196
    x[6]      packing[20]  187
    x[6]      packing[21]  76
    x[6]      packing[22]  128
    x[6]      packing[23]  132
    x[6]      packing[25]  51
    x[6]      packing[27]  36
    x[6]      packing[28]  178
    x[6]      packing[29]  129
    x[6]      packing[31]  4
    x[6]      packing[32]  149
    x[6]      packing[33]  93
    x[6]      packing[35]  4
    x[6]      packing[36]  162
    x[6]      packing[37]  31
    x[6]      packing[38]  58
    x[6]      packing[40]  133
    x[6]      packing[41]  51
    x[6]      packing[42]  194
    x[6]      packing[43]  130
    x[6]      packing[44]  162
    x[6]      packing[45]  177
    x[6]      packing[46]  60
    x[6]      packing[47]  92
    x[6]      R57       1
    x[7]      OBJ       87
    x[7]      packing[1]  104
    x[7]      packing[2]  135
    x[7]      packing[4]  110
    x[7]      packing[6]  61
    x[7]      packing[7]  34
    x[7]      packing[8]  193
    x[7]      packing[9]  183
    x[7]      packing[13]  70
    x[7]      packing[14]  75
    x[7]      packing[15]  20
    x[7]      packing[16]  20
    x[7]      packing[18]  109
    x[7]      packing[21]  66
    x[7]      packing[22]  88
    x[7]      packing[23]  132
    x[7]      packing[24]  148
    x[7]      packing[26]  121
    x[7]      packing[27]  138
    x[7]      packing[28]  3
    x[7]      packing[29]  193
    x[7]      packing[30]  54
    x[7]      packing[32]  182
    x[7]      packing[33]  17
    x[7]      packing[34]  196
    x[7]      packing[35]  21
    x[7]      packing[36]  21
    x[7]      packing[37]  137
    x[7]      packing[38]  35
    x[7]      packing[39]  87
    x[7]      packing[40]  139
    x[7]      packing[41]  97
    x[7]      packing[42]  101
    x[7]      packing[43]  126
    x[7]      packing[45]  17
    x[7]      packing[46]  146
    x[7]      packing[48]  138
    x[7]      packing[49]  87
    x[8]      OBJ       92
    x[8]      packing[0]  67
    x[8]      packing[1]  18
    x[8]      packing[2]  79
    x[8]      packing[3]  36
    x[8]      packing[4]  165
    x[8]      packing[6]  50
    x[8]      packing[7]  107
    x[8]      packing[9]  162
    x[8]      packing[10]  136
    x[8]      packing[11]  63
    x[8]      packing[12]  154
    x[8]      packing[13]  68
    x[8]      packing[18]  60
    x[8]      packing[20]  70
    x[8]      packing[21]  103
    x[8]      packing[22]  166
    x[8]      packing[23]  46
    x[8]      packing[25]  87
    x[8]      packing[26]  156
    x[8]      packing[27]  117
    x[8]      packing[28]  125
    x[8]      packing[29]  85
    x[8]      packing[30]  173
    x[8]      packing[31]  57
    x[8]      packing[32]  48
    x[8]      packing[33]  129
    x[8]      packing[34]  17
    x[8]      packing[35]  191
    x[8]      packing[36]  56
    x[8]      packing[37]  43
    x[8]      packing[39]  108
    x[8]      packing[40]  156
    x[8]      packing[41]  112
    x[8]      packing[42]  106
    x[8]      packing[43]  157
    x[8]      packing[44]  122
    x[8]      packing[45]  75
    x[8]      packing[46]  84
    x[8]      packing[47]  80
    x[8]      packing[49]  172
    x[9]      OBJ       27
    x[9]      packing[0]  149
    x[9]      packing[1]  19
    x[9]      packing[2]  23
    x[9]      packing[3]  78
    x[9]      packing[5]  190
    x[9]      packing[6]  45
    x[9]      packing[8]  190
    x[9]      packing[9]  23
    x[9]      packing[10]  103
    x[9]      packing[11]  45
    x[9]      packing[14]  81
    x[9]      packing[16]  80
    x[9]      packing[17]  137
    x[9]      packing[20]  162
    x[9]      packing[22]  45
    x[9]      packing[23]  43
    x[9]      packing[24]  62
    x[9]      packing[26]  33
    x[9]      packing[27]  171
    x[9]      packing[28]  44
    x[9]      packing[31]  138
    x[9]      packing[32]  170
    x[9]      packing[33]  98
    x[9]      packing[35]  38
    x[9]      packing[36]  32
    x[9]      packing[37]  139
    x[9]      packing[38]  113
    x[9]      packing[39]  125
    x[9]      packing[40]  159
    x[9]      packing[41]  123
    x[9]      packing[42]  197
    x[9]      packing[43]  180
    x[9]      packing[44]  106
    x[9]      packing[45]  198
    x[9]      packing[47]  105
    x[9]      packing[48]  174
    x[10]     OBJ       161
    x[10]     packing[0]  75
    x[10]     packing[2]  116
    x[10]     packing[3]  193
    x[10]     packing[4]  12
    x[10]     packing[6]  48
    x[10]     packing[7]  12
    x[10]     packing[9]  172
    x[10]     packing[10]  95
    x[10]     packing[12]  178
    x[10]     packing[13]  148
    x[10]     packing[14]  130
    x[10]     packing[16]  44
    x[10]     packing[17]  8
    x[10]     packing[18]  181
    x[10]     packing[19]  193
    x[10]     packing[20]  12
    x[10]     packing[21]  40
    x[10]     packing[22]  47
    x[10]     packing[23]  45
    x[10]     packing[25]  121
    x[10]     packing[26]  84
    x[10]     packing[28]  127
    x[10]     packing[29]  172
    x[10]     packing[30]  90
    x[10]     packing[31]  42
    x[10]     packing[32]  36
    x[10]     packing[33]  54
    x[10]     packing[34]  196
    x[10]     packing[35]  34
    x[10]     packing[37]  26
    x[10]     packing[38]  66
    x[10]     packing[40]  1
    x[10]     packing[41]  131
    x[10]     packing[42]  57
    x[10]     packing[43]  115
    x[10]     packing[44]  5
    x[10]     packing[47]  158
    x[10]     packing[49]  141
    x[10]     R57       1
    x[11]     OBJ       57
    x[11]     packing[1]  101
    x[11]     packing[2]  87
    x[11]     packing[3]  116
    x[11]     packing[4]  12
    x[11]     packing[5]  57
    x[11]     packing[6]  104
    x[11]     packing[8]  10
    x[11]     packing[9]  129
    x[11]     packing[10]  30
    x[11]     packing[12]  163
    x[11]     packing[13]  118
    x[11]     packing[14]  94
    x[11]     packing[15]  37
    x[11]     packing[17]  178
    x[11]     packing[20]  196
    x[11]     packing[21]  119
    x[11]     packing[22]  58
    x[11]     packing[25]  116
    x[11]     packing[26]  7
    x[11]     packing[27]  95
    x[11]     packing[30]  176
    x[11]     packing[31]  103
    x[11]     packing[32]  83
    x[11]     packing[33]  152
    x[11]     packing[34]  196
    x[11]     packing[35]  183
    x[11]     packing[36]  64
    x[11]     packing[37]  31
    x[11]     packing[38]  148
    x[11]     packing[40]  107
    x[11]     packing[41]  151
    x[11]     packing[43]  160
    x[11]     packing[44]  44
    x[11]     packing[46]  54
    x[11]     packing[47]  58
    x[11]     packing[49]  150
    x[12]     OBJ       18
    x[12]     packing[1]  101
    x[12]     packing[4]  45
    x[12]     packing[5]  144
    x[12]     packing[6]  131
    x[12]     packing[7]  9
    x[12]     packing[8]  199
    x[12]     packing[9]  104
    x[12]     packing[10]  155
    x[12]     packing[11]  123
    x[12]     packing[12]  12
    x[12]     packing[14]  189
    x[12]     packing[15]  146
    x[12]     packing[16]  134
    x[12]     packing[17]  71
    x[12]     packing[18]  47
    x[12]     packing[19]  132
    x[12]     packing[20]  175
    x[12]     packing[22]  58
    x[12]     packing[23]  76
    x[12]     packing[24]  63
    x[12]     packing[25]  177
    x[12]     packing[26]  104
    x[12]     packing[27]  159
    x[12]     packing[28]  32
    x[12]     packing[29]  91
    x[12]     packing[30]  65
    x[12]     packing[31]  145
    x[12]     packing[32]  25
    x[12]     packing[34]  163
    x[12]     packing[35]  190
    x[12]     packing[37]  122
    x[12]     packing[38]  46
    x[12]     packing[40]  81
    x[12]     packing[41]  127
    x[12]     packing[42]  147
    x[12]     packing[43]  167
    x[12]     packing[44]  121
    x[12]     packing[45]  184
    x[12]     packing[47]  84
    x[12]     packing[48]  113
    x[12]     packing[49]  160
    x[13]     OBJ       175
    x[13]     packing[0]  120
    x[13]     packing[1]  113
    x[13]     packing[3]  151
    x[13]     packing[5]  158
    x[13]     packing[7]  151
    x[13]     packing[8]  13
    x[13]     packing[9]  156
    x[13]     packing[11]  126
    x[13]     packing[12]  105
    x[13]     packing[13]  185
    x[13]     packing[14]  84
    x[13]     packing[17]  41
    x[13]     packing[18]  57
    x[13]     packing[19]  133
    x[13]     packing[20]  94
    x[13]     packing[21]  88
    x[13]     packing[23]  66
    x[13]     packing[25]  162
    x[13]     packing[27]  129
    x[13]     packing[28]  111
    x[13]     packing[29]  24
    x[13]     packing[30]  142
    x[13]     packing[32]  139
    x[13]     packing[33]  192
    x[13]     packing[34]  173
    x[13]     packing[35]  69
    x[13]     packing[37]  160
    x[13]     packing[38]  148
    x[13]     packing[40]  47
    x[13]     packing[41]  146
    x[13]     packing[42]  43
    x[13]     packing[44]  62
    x[13]     packing[45]  67
    x[13]     packing[46]  44
    x[13]     packing[47]  135
    x[13]     packing[48]  50
    x[13]     packing[49]  3
    x[13]     R57       1
    x[14]     OBJ       67
    x[14]     packing[0]  132
    x[14]     packing[1]  17
    x[14]     packing[2]  11
    x[14]     packing[3]  6
    x[14]     packing[4]  74
    x[14]     packing[6]  55
    x[14]     packing[9]  184
    x[14]     packing[10]  142
    x[14]     packing[12]  17
    x[14]     packing[14]  150
    x[14]     packing[15]  81
    x[14]     packing[16]  1
    x[14]     packing[17]  13
    x[14]     packing[18]  94
    x[14]     packing[20]  52
    x[14]     packing[22]  142
    x[14]     packing[23]  159
    x[14]     packing[24]  36
    x[14]     packing[25]  166
    x[14]     packing[26]  107
    x[14]     packing[28]  149
    x[14]     packing[29]  187
    x[14]     packing[30]  121
    x[14]     packing[31]  121
    x[14]     packing[32]  88
    x[14]     packing[33]  130
    x[14]     packing[34]  53
    x[14]     packing[35]  30
    x[14]     packing[36]  123
    x[14]     packing[37]  119
    x[14]     packing[38]  94
    x[14]     packing[39]  132
    x[14]     packing[41]  117
    x[14]     packing[42]  76
    x[14]     packing[44]  74
    x[14]     packing[45]  86
    x[14]     packing[46]  176
    x[14]     packing[47]  39
    x[14]     packing[49]  185
    x[15]     OBJ       102
    x[15]     packing[0]  107
    x[15]     packing[1]  52
    x[15]     packing[2]  16
    x[15]     packing[3]  41
    x[15]     packing[4]  13
    x[15]     packing[5]  133
    x[15]     packing[6]  160
    x[15]     packing[7]  137
    x[15]     packing[8]  67
    x[15]     packing[9]  39
    x[15]     packing[10]  74
    x[15]     packing[12]  143
    x[15]     packing[14]  24
    x[15]     packing[15]  16
    x[15]     packing[16]  139
    x[15]     packing[17]  2
    x[15]     packing[18]  77
    x[15]     packing[19]  40
    x[15]     packing[20]  100
    x[15]     packing[21]  138
    x[15]     packing[22]  6
    x[15]     packing[23]  198
    x[15]     packing[24]  78
    x[15]     packing[25]  13
    x[15]     packing[26]  126
    x[15]     packing[27]  4
    x[15]     packing[28]  76
    x[15]     packing[29]  120
    x[15]     packing[31]  138
    x[15]     packing[32]  73
    x[15]     packing[33]  56
    x[15]     packing[35]  53
    x[15]     packing[37]  78
    x[15]     packing[38]  87
    x[15]     packing[39]  75
    x[15]     packing[40]  178
    x[15]     packing[41]  105
    x[15]     packing[43]  138
    x[15]     packing[44]  121
    x[15]     packing[45]  141
    x[15]     packing[46]  172
    x[15]     packing[47]  36
    x[15]     packing[49]  162
    x[16]     OBJ       83
    x[16]     packing[3]  8
    x[16]     packing[4]  170
    x[16]     packing[6]  156
    x[16]     packing[7]  46
    x[16]     packing[9]  118
    x[16]     packing[10]  97
    x[16]     packing[11]  100
    x[16]     packing[13]  76
    x[16]     packing[14]  77
    x[16]     packing[17]  112
    x[16]     packing[20]  16
    x[16]     packing[23]  105
    x[16]     packing[24]  79
    x[16]     packing[25]  24
    x[16]     packing[26]  78
    x[16]     packing[27]  33
    x[16]     packing[28]  95
    x[16]     packing[30]  155
    x[16]     packing[31]  10
    x[16]     packing[33]  79
    x[16]     packing[34]  39
    x[16]     packing[35]  17
    x[16]     packing[36]  55
    x[16]     packing[37]  9
    x[16]     packing[39]  194
    x[16]     packing[40]  36
    x[16]     packing[41]  146
    x[16]     packing[42]  98
    x[16]     packing[44]  54
    x[16]     packing[45]  120
    x[16]     packing[46]  126
    x[16]     packing[47]  97
    x[17]     OBJ       112
    x[17]     packing[0]  179
    x[17]     packing[1]  191
    x[17]     packing[3]  157
    x[17]     packing[4]  89
    x[17]     packing[5]  58
    x[17]     packing[6]  13
    x[17]     packing[8]  137
    x[17]     packing[9]  79
    x[17]     packing[10]  13
    x[17]     packing[11]  6
    x[17]     packing[12]  70
    x[17]     packing[14]  59
    x[17]     packing[15]  104
    x[17]     packing[16]  142
    x[17]     packing[17]  113
    x[17]     packing[18]  77
    x[17]     packing[19]  48
    x[17]     packing[20]  2
    x[17]     packing[21]  132
    x[17]     packing[23]  89
    x[17]     packing[25]  5
    x[17]     packing[27]  82
    x[17]     packing[28]  190
    x[17]     packing[29]  85
    x[17]     packing[30]  149
    x[17]     packing[31]  86
    x[17]     packing[32]  23
    x[17]     packing[33]  126
    x[17]     packing[34]  119
    x[17]     packing[36]  73
    x[17]     packing[38]  37
    x[17]     packing[40]  88
    x[17]     packing[41]  100
    x[17]     packing[42]  90
    x[17]     packing[43]  47
    x[17]     packing[44]  163
    x[17]     packing[47]  108
    x[18]     OBJ       111
    x[18]     packing[0]  104
    x[18]     packing[1]  134
    x[18]     packing[2]  11
    x[18]     packing[3]  121
    x[18]     packing[4]  183
    x[18]     packing[5]  182
    x[18]     packing[7]  105
    x[18]     packing[9]  63
    x[18]     packing[11]  14
    x[18]     packing[12]  40
    x[18]     packing[13]  61
    x[18]     packing[15]  125
    x[18]     packing[16]  188
    x[18]     packing[17]  57
    x[18]     packing[18]  82
    x[18]     packing[19]  113
    x[18]     packing[21]  8
    x[18]     packing[22]  117
    x[18]     packing[24]  136
    x[18]     packing[25]  103
    x[18]     packing[27]  193
    x[18]     packing[28]  179
    x[18]     packing[29]  84
    x[18]     packing[30]  34
    x[18]     packing[32]  92
    x[18]     packing[33]  109
    x[18]     packing[34]  78
    x[18]     packing[35]  170
    x[18]     packing[36]  124
    x[18]     packing[37]  35
    x[18]     packing[38]  118
    x[18]     packing[39]  50
    x[18]     packing[40]  33
    x[18]     packing[41]  157
    x[18]     packing[42]  61
    x[18]     packing[43]  63
    x[18]     packing[44]  141
    x[18]     packing[45]  97
    x[18]     packing[46]  82
    x[18]     packing[47]  48
    x[18]     packing[48]  20
    x[18]     R57       1
    x[19]     OBJ       43
    x[19]     packing[1]  80
    x[19]     packing[2]  141
    x[19]     packing[3]  1
    x[19]     packing[5]  149
    x[19]     packing[6]  163
    x[19]     packing[7]  33
    x[19]     packing[8]  20
    x[19]     packing[10]  190
    x[19]     packing[12]  22
    x[19]     packing[13]  140
    x[19]     packing[14]  85
    x[19]     packing[15]  48
    x[19]     packing[16]  184
    x[19]     packing[17]  118
    x[19]     packing[18]  32
    x[19]     packing[19]  4
    x[19]     packing[20]  195
    x[19]     packing[23]  71
    x[19]     packing[24]  36
    x[19]     packing[26]  43
    x[19]     packing[27]  140
    x[19]     packing[29]  127
    x[19]     packing[30]  155
    x[19]     packing[31]  154
    x[19]     packing[32]  120
    x[19]     packing[34]  17
    x[19]     packing[35]  174
    x[19]     packing[37]  157
    x[19]     packing[38]  100
    x[19]     packing[39]  34
    x[19]     packing[40]  62
    x[19]     packing[41]  94
    x[19]     packing[42]  35
    x[19]     packing[44]  110
    x[19]     packing[46]  7
    x[19]     packing[47]  46
    x[19]     packing[48]  48
    x[19]     packing[49]  8
    x[20]     OBJ       22
    x[20]     packing[0]  131
    x[20]     packing[1]  98
    x[20]     packing[2]  5
    x[20]     packing[3]  188
    x[20]     packing[4]  181
    x[20]     packing[5]  198
    x[20]     packing[7]  109
    x[20]     packing[8]  56
    x[20]     packing[9]  57
    x[20]     packing[10]  118
    x[20]     packing[13]  16
    x[20]     packing[14]  176
    x[20]     packing[15]  21
    x[20]     packing[16]  67
    x[20]     packing[17]  4
    x[20]     packing[18]  138
    x[20]     packing[19]  165
    x[20]     packing[20]  167
    x[20]     packing[21]  75
    x[20]     packing[23]  115
    x[20]     packing[24]  145
    x[20]     packing[25]  128
    x[20]     packing[26]  55
    x[20]     packing[27]  77
    x[20]     packing[28]  42
    x[20]     packing[29]  195
    x[20]     packing[31]  76
    x[20]     packing[32]  47
    x[20]     packing[34]  152
    x[20]     packing[35]  24
    x[20]     packing[36]  192
    x[20]     packing[37]  16
    x[20]     packing[40]  18
    x[20]     packing[41]  194
    x[20]     packing[42]  189
    x[20]     packing[43]  1
    x[20]     packing[44]  196
    x[20]     packing[45]  12
    x[20]     packing[46]  39
    x[20]     packing[47]  91
    x[20]     packing[48]  97
    MARKER    'MARKER'                 'INTEND'
RHS
    RHS1      packing[0]  671
    RHS1      packing[1]  601
    RHS1      packing[2]  443
    RHS1      packing[3]  721
    RHS1      packing[4]  655
    RHS1      packing[5]  868
    RHS1      packing[6]  781
    RHS1      packing[7]  476
    RHS1      packing[8]  699
    RHS1      packing[9]  867
    RHS1      packing[10]  851
    RHS1      packing[11]  667
    RHS1      packing[12]  736
    RHS1      packing[13]  674
    RHS1      packing[14]  829
    RHS1      packing[15]  425
    RHS1      packing[16]  692
    RHS1      packing[17]  713
    RHS1      packing[18]  678
    RHS1      packing[19]  869
    RHS1      packing[20]  859
    RHS1      packing[21]  586
    RHS1      packing[22]  662
    RHS1      packing[23]  918
    RHS1      packing[24]  523
    RHS1      packing[25]  715
    RHS1      packing[26]  742
    RHS1      packing[27]  774
    RHS1      packing[28]  962
    RHS1      packing[29]  932
    RHS1      packing[30]  802
    RHS1      packing[31]  721
    RHS1      packing[32]  725
    RHS1      packing[33]  821
    RHS1      packing[34]  945
    RHS1      packing[35]  736
    RHS1      packing[36]  564
    RHS1      packing[37]  739
    RHS1      packing[38]  663
    RHS1      packing[39]  529
    RHS1      packing[40]  834
    RHS1      packing[41]  1100
    RHS1      packing[42]  842
    RHS1      packing[43]  871
    RHS1      packing[44]  900
    RHS1      packing[45]  723
    RHS1      packing[46]  805
    RHS1      packing[47]  913
    RHS1      packing[48]  474
    RHS1      packing[49]  762
    RHS1      R57       5
BOUNDS
 BV BND1      x[1]    
 BV BND1      x[2]    
 BV BND1      x[3]    
 BV BND1      x[4]    
 BV BND1      x[5]    
 BV BND1      x[6]    
 BV BND1      x[7]    
 BV BND1      x[8]    
 BV BND1      x[9]    
 BV BND1      x[10]   
 BV BND1      x[11]   
 BV BND1      x[12]   
 BV BND1      x[13]   
 BV BND1      x[14]   
 BV BND1      x[15]   
 BV BND1      x[16]   
 BV BND1      x[17]   
 BV BND1      x[18]   
 BV BND1      x[19]   
 BV BND1      x[20]   
ENDATA
